49
100
70	1
68	1
67	4
66	1
65	1
64	1
63	3
62	4
61	1
60	2
59	2
57	6
56	1
54	1
53	2
52	1
51	1
50	2
48	3
47	1
46	5
44	5
43	3
42	2
41	1
40	2
37	1
36	1
35	2
34	2
33	2
32	1
31	1
30	3
29	1
28	1
27	3
26	2
24	1
21	3
20	2
19	1
18	2
17	1
16	2
15	2
13	3
12	4
10	2
